language ESSENCE' 1.0

letting jobs = 102
letting horizon = 805
letting resourcesRenew = 2
letting resourcesNonrenew = 2
letting resourceLimits = [35, 46, 463, 506]
letting successors = [[2, 3, 4, 5, 6, 7, 8, 10, 11, 13, 14, 16, 17, 18, 19, 30, 44], [48, 36, 35, 32, 27, 26, 24, 21, 20, 12, 9], [55, 40, 38, 35, 26, 25, 24, 21, 9], [58, 55, 50, 48, 45, 40, 38, 37, 34, 33, 31, 28, 27, 24, 23], [62, 58, 50, 48, 47, 45, 43, 40, 39, 38, 37, 35, 34, 33, 28, 27], [65, 55, 54, 48, 38, 37, 36, 28, 25, 15], [58, 56, 55, 47, 43, 35, 33, 26, 12], [62, 56, 55, 54, 48, 47, 43, 42, 40, 38, 35, 33, 31, 29, 22], [66, 62, 58, 50, 47, 45, 43, 34, 33, 31, 28, 23], [58, 53, 45, 43, 40, 34, 32, 28, 23, 22], [62, 58, 56, 55, 54, 52, 50, 47, 40, 35, 33, 31, 26], [65, 62, 54, 51, 50, 45, 42, 38, 25], [62, 61, 56, 54, 52, 51, 47, 46, 45, 42, 39, 35], [63, 62, 57, 56, 54, 51, 47, 46, 43, 42, 39, 33], [66, 62, 61, 59, 58, 51, 50, 47, 46, 45, 26], [61, 58, 55, 53, 28, 23], [78, 69, 66, 63, 58, 57, 55, 51, 50, 43, 41, 39, 38], [78, 66, 65, 63, 62, 58, 57, 55, 53, 47, 43, 33], [68, 66, 62, 61, 60, 59, 57, 55, 54, 52, 46, 42, 41], [74, 70, 65, 63, 62, 59, 43, 31], [68, 60, 59, 57, 56, 53, 50, 42, 41], [74, 69, 68, 66, 63, 61, 60, 57, 51, 50, 41], [78, 77, 75, 69, 65, 54, 52, 51, 39], [78, 77, 75, 69, 68, 66, 62, 60, 57, 56, 53, 51, 49], [84, 69, 68, 67, 66, 63, 59, 57, 46, 41], [69, 67, 63, 57, 53, 41, 39], [84, 77, 75, 74, 70, 69, 66, 60, 57, 54, 53, 51, 49], [75, 68, 63, 60, 59, 57, 56, 42], [84, 72, 70, 69, 68, 67, 66, 65, 64, 63, 61, 60, 57], [74, 70, 69, 62, 61, 59, 53, 51, 50, 49], [84, 78, 69, 68, 67, 60, 57, 46], [101, 100, 84, 70, 69, 68, 65, 63, 62, 55, 54], [84, 68, 61, 60, 59, 41], [84, 83, 81, 77, 76, 75, 74, 73, 70, 69, 68, 60, 49], [84, 67, 66, 57, 41], [83, 76, 75, 74, 71, 68, 64, 62, 60, 53, 51], [84, 83, 77, 69, 68, 67, 46], [84, 81, 70, 61, 60, 53, 52, 49], [84, 83, 81, 76, 74, 73, 70, 68, 60, 49], [100, 84, 83, 82, 81, 78, 76, 75, 71, 69, 60, 51], [101, 95, 83, 81, 77, 76, 75, 73, 70, 49], [101, 100, 99, 97, 83, 82, 81, 80, 78, 77, 76, 74, 72, 71, 69, 67], [100, 97, 95, 83, 81, 77, 76, 75, 73, 68, 64, 60], [99, 97, 94, 83, 82, 77, 76, 69, 67, 64, 53], [101, 100, 99, 97, 94, 91, 84, 83, 82, 80, 78, 73, 72, 63], [76, 75, 53, 49], [101, 100, 99, 98, 97, 84, 83, 81, 80, 76, 75, 73, 72, 71, 64], [101, 99, 97, 94, 92, 83, 82, 81, 80, 74, 73, 72, 69], [100, 99, 98, 97, 96, 82, 80, 72, 71, 64], [100, 97, 96, 82, 81, 77, 76, 72, 71, 64], [101, 98, 97, 96, 95, 88, 80, 73, 67], [97, 95, 93, 83, 82, 80, 76, 73, 71], [101, 100, 98, 95, 92, 91, 88, 80, 73, 72], [97, 96, 91, 83, 81, 76, 73, 71], [99, 96, 94, 89, 81, 74, 67], [101, 100, 97, 94, 93, 90, 89, 84, 80, 79, 76], [98, 96, 95, 92, 91, 88, 83, 81, 80, 73], [100, 99, 92, 90, 89, 88, 84, 80, 79, 74], [100, 99, 97, 96, 90, 80, 79, 71], [101, 99, 98, 94, 93, 92, 91, 89, 85, 80, 79], [96, 91, 73, 71], [95, 94, 93, 91, 90, 88, 85, 81, 80, 79], [93, 92, 81, 79, 77, 76], [93, 92, 91, 90, 89, 88, 87, 85, 79], [98, 97, 90, 89, 88, 87, 85, 81, 79], [95, 94, 92, 91, 90, 89, 88, 86, 85], [93, 92, 91, 90, 87, 85, 79], [96, 91, 89, 88, 82, 79], [96, 91, 90, 88, 85, 79], [93, 91, 90, 87, 86, 85], [94, 92, 88, 87, 85], [93, 89, 87, 86, 85], [90, 89, 85, 79], [98, 95, 87, 85], [91, 85, 79], [88, 86, 85], [89, 87, 86], [96, 88, 85], [86], [87], [86], [85], [86], [95], [102], [102], [102], [102], [102], [102], [102], [102], [102], [102], [102], [102], [102], [102], [102], [102], [102], []]
letting durations = [[0], [1, 4, 6], [4, 10, 10], [5, 10, 10], [5, 6, 7], [7, 9, 10], [2, 2, 3], [1, 7, 10], [1, 5, 6], [5, 6, 9], [2, 6, 7], [2, 4, 9], [3, 8, 9], [2, 3, 6], [1, 4, 10], [7, 8, 9], [1, 2, 10], [3, 9, 10], [3, 4, 8], [5, 8, 9], [5, 9, 10], [6, 7, 10], [1, 6, 8], [3, 4, 7], [3, 4, 5], [1, 4, 7], [4, 5, 9], [2, 4, 4], [6, 6, 9], [2, 4, 10], [2, 5, 10], [1, 1, 9], [2, 3, 9], [3, 5, 10], [5, 8, 8], [2, 5, 7], [2, 2, 3], [1, 2, 8], [2, 4, 10], [5, 8, 10], [8, 9, 10], [8, 9, 9], [5, 6, 7], [1, 2, 3], [5, 5, 7], [1, 5, 6], [2, 6, 7], [2, 5, 7], [5, 6, 10], [2, 3, 7], [5, 6, 7], [1, 4, 10], [5, 8, 9], [3, 4, 8], [5, 6, 7], [1, 3, 6], [3, 4, 10], [4, 7, 10], [1, 5, 7], [2, 3, 7], [5, 6, 10], [1, 3, 8], [1, 1, 7], [1, 4, 5], [5, 9, 9], [3, 4, 9], [8, 9, 10], [2, 9, 10], [3, 4, 5], [2, 4, 6], [1, 5, 8], [8, 9, 10], [2, 6, 10], [2, 3, 4], [4, 7, 9], [2, 9, 10], [6, 7, 8], [4, 4, 10], [2, 3, 10], [1, 4, 7], [6, 8, 9], [1, 6, 9], [3, 3, 6], [4, 8, 10], [5, 7, 9], [4, 5, 7], [3, 5, 8], [4, 5, 10], [4, 7, 9], [2, 4, 9], [2, 4, 6], [1, 3, 5], [1, 3, 8], [3, 4, 5], [2, 7, 9], [4, 4, 9], [1, 4, 8], [1, 4, 6], [2, 6, 7], [1, 4, 10], [1, 3, 6], [0]]
letting resourceUsage = [[[0, 0, 0, 0]], [[0, 3, 5, 9], [3, 0, 5, 8], [3, 0, 2, 8]], [[0, 4, 3, 4], [1, 0, 3, 4], [0, 4, 2, 2]], [[4, 0, 9, 3], [0, 4, 9, 3], [2, 0, 8, 3]], [[0, 4, 4, 9], [0, 3, 4, 7], [0, 2, 4, 7]], [[3, 0, 7, 3], [3, 0, 6, 2], [0, 3, 6, 1]], [[0, 4, 7, 7], [2, 0, 7, 7], [0, 3, 7, 5]], [[0, 4, 5, 9], [0, 3, 5, 4], [0, 3, 4, 3]], [[0, 4, 4, 6], [0, 3, 3, 3], [0, 3, 2, 3]], [[4, 0, 5, 8], [4, 0, 4, 4], [0, 2, 4, 4]], [[4, 0, 5, 9], [0, 4, 3, 6], [0, 2, 2, 5]], [[0, 3, 3, 7], [3, 0, 2, 7], [3, 0, 2, 4]], [[0, 2, 5, 7], [0, 2, 3, 7], [0, 2, 2, 5]], [[0, 5, 9, 10], [0, 5, 8, 8], [0, 5, 7, 6]], [[0, 4, 5, 8], [1, 0, 3, 6], [1, 0, 1, 3]], [[0, 2, 7, 6], [0, 2, 7, 5], [4, 0, 7, 5]], [[0, 1, 6, 4], [0, 1, 5, 3], [1, 0, 3, 1]], [[3, 0, 3, 10], [3, 0, 3, 9], [0, 3, 3, 8]], [[0, 5, 10, 9], [0, 4, 9, 7], [2, 0, 9, 7]], [[0, 2, 6, 5], [0, 1, 3, 5], [2, 0, 3, 3]], [[0, 4, 9, 10], [4, 0, 6, 10], [0, 2, 4, 10]], [[3, 0, 7, 5], [2, 0, 3, 5], [0, 1, 1, 5]], [[2, 0, 9, 8], [0, 2, 7, 7], [0, 1, 7, 6]], [[0, 2, 10, 6], [0, 1, 7, 4], [3, 0, 6, 4]], [[2, 0, 8, 6], [0, 4, 7, 6], [0, 4, 7, 2]], [[0, 4, 7, 6], [0, 4, 6, 5], [0, 4, 6, 4]], [[0, 5, 9, 6], [1, 0, 7, 6], [0, 4, 5, 6]], [[5, 0, 5, 4], [0, 3, 3, 3], [3, 0, 2, 3]], [[0, 3, 7, 1], [0, 3, 6, 2], [0, 3, 6, 1]], [[0, 5, 5, 6], [0, 3, 3, 5], [1, 0, 3, 5]], [[0, 4, 5, 8], [3, 0, 4, 7], [0, 2, 3, 7]], [[4, 0, 8, 5], [0, 1, 8, 5], [0, 1, 6, 4]], [[4, 0, 1, 5], [2, 0, 1, 4], [0, 2, 1, 4]], [[5, 0, 6, 8], [0, 4, 2, 7], [5, 0, 1, 5]], [[5, 0, 5, 2], [3, 0, 5, 2], [0, 2, 3, 2]], [[2, 0, 6, 3], [0, 2, 6, 2], [0, 2, 6, 1]], [[0, 3, 3, 3], [2, 0, 3, 2], [0, 2, 3, 2]], [[0, 4, 8, 9], [1, 0, 7, 8], [1, 0, 6, 5]], [[3, 0, 7, 6], [0, 3, 7, 4], [1, 0, 6, 2]], [[2, 0, 5, 6], [2, 0, 4, 5], [2, 0, 3, 4]], [[0, 2, 9, 7], [3, 0, 8, 7], [0, 2, 5, 3]], [[0, 5, 6, 9], [0, 4, 4, 8], [2, 0, 3, 8]], [[5, 0, 4, 6], [0, 1, 3, 6], [2, 0, 1, 6]], [[0, 5, 9, 3], [0, 5, 7, 2], [4, 0, 6, 2]], [[5, 0, 4, 4], [0, 5, 3, 4], [3, 0, 3, 4]], [[5, 0, 7, 5], [0, 2, 6, 5], [3, 0, 4, 5]], [[0, 2, 7, 8], [0, 1, 5, 4], [0, 1, 4, 4]], [[2, 0, 5, 9], [0, 3, 3, 6], [1, 0, 3, 6]], [[0, 3, 6, 6], [0, 1, 5, 5], [3, 0, 4, 3]], [[3, 0, 6, 8], [3, 0, 4, 6], [3, 0, 1, 2]], [[0, 3, 6, 4], [0, 2, 4, 3], [0, 1, 4, 2]], [[0, 5, 4, 8], [0, 5, 3, 8], [1, 0, 3, 8]], [[0, 3, 8, 1], [0, 2, 7, 1], [3, 0, 6, 1]], [[0, 2, 6, 8], [1, 0, 5, 7], [0, 2, 5, 7]], [[0, 3, 2, 3], [0, 3, 1, 2], [0, 3, 1, 1]], [[0, 4, 7, 8], [0, 4, 7, 5], [5, 0, 7, 5]], [[0, 5, 3, 10], [0, 3, 3, 6], [0, 3, 3, 5]], [[4, 0, 3, 10], [3, 0, 2, 10], [0, 1, 2, 10]], [[0, 4, 5, 5], [3, 0, 5, 4], [0, 2, 5, 4]], [[0, 3, 10, 8], [0, 1, 7, 8], [0, 1, 5, 8]], [[0, 3, 9, 6], [3, 0, 7, 4], [0, 2, 5, 2]], [[3, 0, 4, 6], [2, 0, 2, 6], [1, 0, 1, 3]], [[0, 2, 9, 7], [2, 0, 4, 5], [1, 0, 2, 4]], [[0, 3, 8, 9], [0, 2, 5, 8], [0, 2, 4, 8]], [[0, 5, 8, 7], [0, 2, 7, 7], [1, 0, 7, 7]], [[0, 5, 9, 7], [0, 3, 7, 7], [2, 0, 7, 7]], [[5, 0, 9, 5], [4, 0, 6, 3], [3, 0, 5, 1]], [[0, 2, 8, 3], [4, 0, 4, 2], [0, 1, 2, 2]], [[4, 0, 6, 8], [2, 0, 4, 7], [0, 4, 3, 6]], [[0, 3, 1, 3], [3, 0, 1, 2], [1, 0, 1, 2]], [[0, 4, 3, 10], [0, 2, 2, 9], [3, 0, 2, 9]], [[5, 0, 9, 7], [0, 3, 7, 6], [4, 0, 5, 3]], [[0, 5, 8, 7], [3, 0, 8, 7], [0, 3, 4, 7]], [[0, 4, 8, 8], [0, 2, 5, 8], [5, 0, 3, 8]], [[3, 0, 7, 7], [0, 2, 5, 5], [0, 2, 2, 4]], [[0, 4, 7, 10], [3, 0, 6, 9], [0, 3, 6, 9]], [[0, 3, 9, 8], [4, 0, 5, 6], [0, 1, 4, 4]], [[0, 2, 10, 9], [1, 0, 6, 8], [1, 0, 4, 8]], [[2, 0, 8, 8], [1, 0, 7, 7], [1, 0, 7, 6]], [[2, 0, 7, 4], [0, 3, 7, 3], [0, 2, 7, 3]], [[0, 4, 8, 7], [1, 0, 6, 5], [1, 0, 6, 4]], [[3, 0, 10, 4], [0, 3, 8, 3], [2, 0, 7, 2]], [[0, 4, 8, 8], [1, 0, 8, 6], [0, 3, 7, 6]], [[0, 5, 4, 7], [2, 0, 4, 7], [0, 2, 3, 6]], [[0, 5, 2, 6], [2, 0, 2, 4], [0, 3, 1, 1]], [[4, 0, 8, 3], [0, 5, 8, 2], [0, 5, 8, 1]], [[0, 4, 7, 10], [1, 0, 6, 9], [0, 4, 6, 8]], [[0, 5, 8, 9], [0, 3, 6, 9], [2, 0, 4, 8]], [[3, 0, 6, 6], [3, 0, 5, 3], [3, 0, 4, 3]], [[0, 3, 1, 10], [4, 0, 1, 5], [4, 0, 1, 4]], [[4, 0, 9, 9], [3, 0, 7, 8], [3, 0, 4, 8]], [[0, 4, 10, 10], [2, 0, 7, 6], [0, 2, 4, 5]], [[0, 3, 6, 5], [0, 2, 5, 5], [3, 0, 1, 5]], [[3, 0, 1, 5], [0, 2, 1, 4], [0, 2, 1, 3]], [[3, 0, 9, 7], [0, 4, 8, 6], [0, 3, 5, 4]], [[3, 0, 7, 5], [0, 1, 7, 5], [0, 1, 3, 4]], [[5, 0, 9, 7], [3, 0, 4, 6], [1, 0, 1, 4]], [[2, 0, 8, 2], [2, 0, 7, 2], [2, 0, 6, 2]], [[4, 0, 7, 8], [4, 0, 6, 5], [0, 1, 4, 4]], [[0, 4, 7, 9], [0, 2, 6, 7], [2, 0, 2, 6]], [[3, 0, 7, 8], [3, 0, 7, 4], [3, 0, 6, 1]], [[0, 0, 0, 0]]]
